60
1 0 3
2 1 8
3 0 5
3 1 10
4 0 10
4 3 4
5 3 5
5 4 5
6 3 5
7 0 1
7 1 1
7 2 1
8 1 4
8 3 6
8 4 9
9 0 10
9 2 9
9 4 3
9 7 6
10 1 3
10 2 8
10 4 2
10 6 8
10 8 2
11 0 4
11 1 5
11 3 6
11 6 2
12 0 10
12 1 10
12 3 7
12 5 6
12 10 6
13 5 2
13 6 2
13 7 8
13 8 7
13 10 3
13 11 4
14 0 8
14 1 10
14 2 9
14 4 5
14 5 2
14 7 1
14 8 8
14 11 3
14 12 6
15 0 10
15 5 3
15 6 10
15 9 10
15 10 8
15 11 1
15 13 9
16 4 8
16 5 8
16 6 6
16 8 8
16 9 9
17 0 1
17 2 8
17 3 9
17 8 4
17 9 4
17 12 3
17 14 1
17 16 3
18 2 5
18 3 5
18 5 1
18 6 6
18 10 9
18 11 8
18 14 2
18 17 9
19 2 3
19 4 8
19 7 8
19 9 3
19 11 5
19 12 10
19 13 9
19 15 10
19 16 5
19 18 5
20 0 9
20 1 4
20 3 4
20 5 10
20 7 8
20 11 9
20 12 9
20 13 3
20 15 7
20 17 4
20 18 5
21 1 10
21 2 8
21 7 9
21 8 3
21 9 10
21 10 8
21 12 7
21 13 10
21 14 4
21 16 1
21 17 4
22 0 3
22 1 6
22 3 7
22 4 1
22 5 8
22 6 1
22 8 6
22 13 2
22 14 8
22 16 9
22 17 6
22 19 6
22 20 9
23 1 10
23 3 6
23 5 2
23 6 9
23 8 1
23 10 2
23 12 5
23 18 10
23 20 9
24 1 8
24 3 4
24 7 6
24 9 4
24 12 3
24 13 7
24 15 1
24 16 2
24 17 6
24 21 3
24 23 4
25 2 3
25 4 6
25 5 5
25 7 6
25 10 7
25 14 3
25 15 8
25 16 8
25 18 2
25 20 7
25 21 2
25 22 2
25 23 10
25 24 2
26 2 8
26 5 4
26 8 7
26 11 1
26 14 7
26 16 5
26 17 7
26 19 1
26 21 8
26 24 3
26 25 10
27 2 9
27 3 6
27 4 2
27 9 8
27 12 9
27 13 10
27 14 10
27 17 5
27 19 3
27 20 1
27 22 6
27 25 6
28 1 9
28 3 7
28 6 4
28 7 3
28 10 9
28 12 7
28 15 1
28 16 1
28 17 8
28 18 9
28 19 4
28 23 1
28 24 9
28 25 9
28 26 2
29 0 7
29 1 5
29 5 7
29 6 4
29 9 3
29 10 7
29 11 2
29 12 5
29 13 1
29 15 1
29 16 2
29 17 5
29 20 9
29 21 2
29 22 10
29 24 2
29 27 10
29 28 8
30 3 5
30 9 4
30 11 6
30 17 5
30 19 1
30 20 6
30 21 6
30 23 10
30 24 3
30 25 1
31 0 3
31 2 3
31 5 4
31 7 6
31 8 2
31 9 3
31 11 10
31 12 7
31 13 6
31 16 8
31 18 9
31 19 1
31 21 4
31 22 10
31 25 2
31 30 8
32 0 1
32 4 7
32 5 4
32 6 10
32 8 7
32 9 8
32 13 4
32 14 2
32 15 6
32 16 10
32 17 3
32 18 3
32 20 4
32 23 6
32 26 9
32 28 5
32 30 2
33 0 1
33 1 3
33 5 9
33 8 6
33 11 10
33 12 8
33 14 3
33 15 10
33 18 3
33 20 3
33 22 2
33 23 9
33 31 9
34 0 3
34 2 6
34 3 1
34 5 4
34 6 2
34 7 10
34 10 10
34 12 1
34 13 9
34 15 7
34 16 9
34 18 9
34 19 2
34 22 9
34 23 1
34 26 6
34 32 5
35 0 3
35 1 1
35 3 4
35 4 2
35 5 1
35 6 8
35 10 7
35 12 10
35 20 5
35 21 5
35 22 10
35 23 8
35 24 6
35 27 6
35 29 9
35 32 7
35 33 3
36 1 4
36 2 1
36 3 9
36 4 5
36 14 7
36 16 4
36 19 3
36 23 6
36 27 1
36 30 6
36 31 6
36 34 3
36 35 7
37 0 10
37 4 8
37 6 2
37 7 7
37 9 5
37 10 8
37 14 8
37 15 6
37 16 6
37 18 6
37 22 9
37 23 5
37 26 5
37 28 8
37 34 6
38 2 9
38 4 10
38 8 3
38 9 7
38 11 3
38 14 6
38 26 4
38 30 4
38 31 9
38 32 6
38 34 7
38 35 8
38 37 3
39 0 6
39 1 10
39 2 5
39 3 9
39 5 9
39 6 1
39 11 7
39 12 9
39 13 6
39 14 7
39 15 7
39 17 6
39 19 8
39 20 8
39 21 2
39 22 9
39 25 6
39 26 9
39 27 1
39 28 3
39 30 10
39 36 6
39 37 10
40 0 3
40 1 5
40 3 9
40 5 4
40 6 1
40 14 1
40 16 1
40 17 5
40 18 5
40 21 6
40 22 8
40 23 6
40 25 3
40 27 5
40 29 1
40 31 2
40 36 7
40 37 9
40 38 9
41 0 2
41 2 8
41 4 3
41 6 10
41 7 2
41 8 4
41 9 10
41 13 5
41 14 10
41 15 8
41 19 1
41 22 6
41 23 6
41 25 2
41 26 6
41 27 8
41 28 8
41 32 1
41 35 10
41 38 3
41 39 6
42 2 1
42 6 4
42 10 4
42 17 4
42 18 10
42 20 4
42 22 8
42 23 1
42 28 10
42 29 3
42 30 4
42 31 2
42 32 8
42 34 6
42 36 2
42 38 9
42 40 6
42 41 9
43 1 2
43 2 10
43 3 2
43 5 3
43 8 4
43 10 3
43 11 4
43 12 1
43 14 8
43 15 10
43 16 1
43 17 6
43 18 2
43 19 5
43 25 8
43 27 6
43 28 10
43 29 7
43 32 5
43 33 3
43 34 10
43 35 7
43 36 7
43 37 6
43 38 9
44 0 4
44 2 8
44 3 5
44 5 4
44 6 10
44 8 7
44 9 9
44 11 2
44 12 1
44 14 6
44 16 7
44 18 3
44 19 3
44 20 4
44 22 2
44 23 10
44 25 5
44 26 10
44 29 4
44 32 7
44 34 10
44 35 3
44 39 8
44 40 1
44 42 10
44 43 10
45 0 9
45 1 7
45 3 6
45 5 3
45 6 9
45 8 9
45 9 1
45 11 8
45 12 7
45 13 9
45 16 8
45 20 1
45 21 4
45 23 7
45 25 2
45 27 4
45 30 2
45 33 10
45 34 9
45 35 9
45 41 10
46 0 10
46 1 9
46 2 10
46 3 8
46 6 6
46 8 5
46 9 5
46 10 10
46 11 8
46 13 5
46 15 9
46 18 6
46 20 4
46 21 7
46 22 10
46 24 6
46 25 10
46 30 4
46 31 8
46 32 3
46 35 3
46 36 3
46 37 10
46 38 2
46 40 1
46 41 5
46 43 1
46 44 9
47 1 10
47 6 1
47 11 6
47 12 2
47 13 5
47 16 3
47 19 3
47 20 3
47 22 7
47 24 3
47 25 9
47 26 9
47 27 5
47 28 10
47 29 10
47 32 10
47 33 7
47 36 9
47 43 3
48 1 4
48 2 4
48 3 5
48 5 2
48 8 3
48 9 10
48 10 4
48 11 10
48 13 9
48 14 9
48 15 4
48 22 10
48 29 4
48 30 4
48 31 4
48 32 10
48 34 6
48 39 6
48 40 6
48 46 5
49 1 5
49 5 4
49 8 7
49 9 1
49 11 6
49 13 8
49 14 5
49 16 5
49 17 5
49 19 5
49 23 3
49 24 10
49 26 1
49 31 6
49 33 10
49 34 2
49 35 3
49 37 8
49 38 7
49 40 2
49 41 1
49 44 6
49 47 1
49 48 10
50 0 2
50 1 7
50 2 8
50 4 3
50 10 8
50 11 3
50 14 4
50 15 8
50 16 6
50 18 9
50 19 5
50 21 4
50 23 4
50 24 1
50 25 7
50 26 8
50 27 1
50 30 5
50 31 6
50 33 3
50 35 9
50 38 6
50 44 10
50 47 8
50 48 2
50 49 7
51 0 1
51 1 8
51 3 8
51 4 3
51 5 9
51 7 8
51 9 1
51 10 3
51 11 7
51 13 2
51 14 6
51 16 2
51 17 5
51 19 5
51 22 10
51 26 5
51 31 4
51 32 1
51 34 3
51 35 8
51 38 4
51 39 9
51 40 9
51 41 6
51 42 6
51 43 9
51 45 9
51 47 3
51 49 5
52 0 4
52 3 1
52 4 5
52 6 7
52 10 10
52 13 1
52 15 9
52 16 9
52 18 10
52 21 8
52 24 10
52 28 1
52 32 6
52 33 3
52 34 6
52 38 2
52 39 3
52 40 6
52 45 9
52 51 10
53 1 5
53 5 2
53 12 6
53 13 10
53 16 2
53 17 8
53 18 5
53 19 8
53 28 8
53 29 1
53 30 10
53 31 3
53 32 5
53 34 5
53 39 8
53 40 10
53 41 4
53 45 2
53 48 1
53 49 1
53 50 3
53 52 7
54 1 3
54 3 4
54 5 3
54 6 2
54 7 2
54 8 3
54 14 4
54 17 1
54 18 6
54 21 5
54 23 4
54 28 1
54 29 3
54 30 4
54 31 5
54 33 2
54 34 9
54 35 7
54 39 1
54 45 7
54 46 3
54 47 7
54 49 8
54 50 4
54 52 8
54 53 5
55 1 4
55 2 4
55 3 5
55 5 2
55 6 6
55 8 5
55 10 10
55 11 10
55 16 9
55 17 5
55 21 10
55 25 3
55 27 5
55 33 9
55 37 7
55 38 5
55 40 3
55 42 9
55 46 2
55 47 6
55 48 2
55 50 2
55 53 6
55 54 7
56 1 4
56 2 7
56 3 5
56 7 6
56 14 2
56 16 3
56 19 7
56 22 1
56 23 8
56 24 3
56 25 5
56 29 10
56 31 4
56 32 2
56 33 7
56 35 2
56 37 9
56 39 6
56 40 8
56 41 1
56 42 9
56 43 7
56 46 9
56 47 3
56 49 10
56 51 8
57 2 7
57 8 1
57 9 5
57 12 6
57 13 6
57 20 2
57 21 10
57 23 4
57 24 10
57 25 8
57 26 4
57 28 2
57 31 7
57 32 7
57 35 3
57 36 5
57 37 3
57 38 7
57 39 2
57 43 6
57 44 2
57 45 5
57 46 8
57 48 10
57 49 6
57 53 5
57 54 8
58 0 7
58 3 5
58 4 9
58 5 10
58 7 3
58 9 8
58 11 9
58 12 8
58 14 10
58 17 9
58 18 4
58 22 7
58 24 3
58 27 3
58 28 8
58 30 4
58 36 9
58 37 5
58 41 6
58 44 9
58 45 4
58 51 9
58 54 9
58 55 10
58 57 10
59 1 8
59 2 10
59 3 2
59 4 5
59 7 6
59 8 5
59 10 9
59 15 6
59 17 6
59 19 8
59 21 10
59 22 6
59 25 1
59 26 8
59 29 9
59 31 5
59 32 8
59 36 4
59 38 5
59 39 1
59 40 4
59 43 4
59 44 2
59 47 3
59 48 10
59 50 4
59 53 9
59 55 7
59 56 5
59 57 3
59 58 10
